
Route #1: 19 30 40 11 34 18 43 7 
Route #2: 1 44 14 35 31 38 
Route #3: 26 29 27 37 24 23 32 
Route #4: 2 25 22 28 20 33 21 9 
Route #5: 15 36 39 12 42 4 41 8 10 
Route #6: 6 13 3 17 5 16 
cost 1360.11
total time is 4.2